/* Objective function */
max: ;

/* Constraints */
R1: +x6 <= 0;
R2: +x14 <= 0;
R3: +x9 <= 0;
R4: +x3 <= 0;
R5: +x3 <= 0;
R6: +x13 <= 0;
R7: +x3 <= 0;
R8: +x1 <= 0;
0 x1 <= 0;
R10: +x2 <= 0;
R11: +x3 <= 0;
R12: +x2 <= 0;
R13: +x2 <= 0;
R14: +x2 <= 0;
+x1 +x15 <= 0;
R16: +x3 <= 0;
R17: +x2 <= 0;
R18: +x9 <= 0;
R19: +x6 <= 0;
R20: +x6 <= 0;
R21: +x1 <= 0;
R22: +x1 <= 0;
R23: +x1 <= 0;
R24: +x10 <= 0;
R25: +x10 <= 0;
R26: +x11 <= 0;
0 x1 <= 1;
R28: +x11 <= 0;
R29: +x7 <= 0;
R30: +x1 <= 0;
R31: +x8 <= 0;
R32: +x7 <= 0;
+x4 +x5 +x7 +x8 +x12 <= 0;
R34: +x4 <= 0;
R35: +x12 <= 0;
R36: +x5 <= 0;
R37: +x4 <= 0;
R38: +x8 <= 0;
R39: +x4 <= 0;
R40: +x5 <= 0;
R41: +x5 <= 0;
R42: +x6 >= 0;
R43: +x11 >= 0;
R44: +x9 >= 0;
R45: +x9 >= 0;
R46: +x10 >= 0;
R47: +x9 >= 0;
R48: +x1 >= 0;
+x1 +x3 >= 0;
R50: +x11 >= 0;
R51: +x9 >= 0;
R52: +x13 >= 0;
R53: +x13 >= 0;
R54: +x11 >= 0;
R55: +x14 >= 0;
R56: +x9 >= 0;
R57: +x13 >= 0;
R58: +x11 >= 0;
R59: +x6 >= 0;
R60: +x6 >= 0;
R61: +x1 >= 0;
R62: +x1 >= 0;
R63: +x1 >= 0;
R64: +x15 >= 0;
R65: +x15 >= 0;
0 x1 >= 1;
R67: +x2 >= 0;
R68: +x2 >= 0;
R69: +x7 >= 0;
+x4 +x5 +x7 +x8 +x12 >= 0;
R71: +x8 >= 0;
R72: +x7 >= 0;
R73: +x1 >= 0;
R74: +x4 >= 0;
R75: +x12 >= 0;
R76: +x5 >= 0;
R77: +x4 >= 0;
R78: +x8 >= 0;
R79: +x4 >= 0;
R80: +x5 >= 0;
R81: +x5 >= 0;
R82: +x1 >= 0;
R83: +x2 >= 0;
R84: +x3 >= 0;
R85: +x4 >= 0;
R86: +x5 >= 0;
R87: +x6 >= 0;
R88: +x7 >= 0;
R89: +x8 >= 0;
R90: +x9 >= 0;
R91: +x10 >= 0;
R92: +x11 >= 0;
R93: +x12 >= 0;
R94: +x13 >= 0;
R95: +x14 >= 0;
R96: +x15 >= 0;
